DIMACS_lns/graph-1000-92.col
p edge 1000 1844
e 1 176
e 1 762
e 1 25
e 1 551
e 1 419
e 1 872
e 1 940
e 1 982
e 2 514
e 2 385
e 2 661
e 2 251
e 2 141
e 2 326
e 2 989
e 4 929
e 4 652
e 4 30
e 4 364
e 5 341
e 5 808
e 5 510
e 5 155
e 5 898
e 5 149
e 6 103
e 6 118
e 6 471
e 6 799
e 6 30
e 7 828
e 7 235
e 7 933
e 10 230
e 10 326
e 10 533
e 10 901
e 10 21
e 12 858
e 12 218
e 12 938
e 12 649
e 13 290
e 13 151
e 13 701
e 13 825
e 14 412
e 14 961
e 14 402
e 15 506
e 15 382
e 15 526
e 15 22
e 15 532
e 15 743
e 16 123
e 16 584
e 16 610
e 16 79
e 16 386
e 17 984
e 17 292
e 17 841
e 17 267
e 18 37
e 18 283
e 18 965
e 18 79
e 18 141
e 19 707
e 19 175
e 19 109
e 20 174
e 20 918
e 20 535
e 20 936
e 21 542
e 21 690
e 21 531
e 21 303
e 22 52
e 22 257
e 22 953
e 23 367
e 23 891
e 23 403
e 23 180
e 24 161
e 24 173
e 24 786
e 25 567
e 25 303
e 25 842
e 25 697
e 26 763
e 26 618
e 26 421
e 27 537
e 27 295
e 27 743
e 28 680
e 28 427
e 28 150
e 29 476
e 29 87
e 29 374
e 29 946
e 29 282
e 29 615
e 29 963
e 29 902
e 30 116
e 30 276
e 30 827
e 30 320
e 30 396
e 30 296
e 31 402
e 31 207
e 31 652
e 31 130
e 31 848
e 31 466
e 32 931
e 32 289
e 32 332
e 32 75
e 32 129
e 32 968
e 34 633
e 34 216
e 34 821
e 34 381
e 35 42
e 35 128
e 35 966
e 35 798
e 37 114
e 37 813
e 37 329
e 37 201
e 37 687
e 38 737
e 38 336
e 38 214
e 39 331
e 39 829
e 39 996
e 39 250
e 40 637
e 40 770
e 40 652
e 40 550
e 40 661
e 40 581
e 41 640
e 41 52
e 41 478
e 42 115
e 42 151
e 42 854
e 43 339
e 43 65
e 43 789
e 43 296
e 44 517
e 44 358
e 44 372
e 45 672
e 45 951
e 45 122
e 45 598
e 45 746
e 45 658
e 47 807
e 47 790
e 47 513
e 48 812
e 48 927
e 48 867
e 48 931
e 48 928
e 48 372
e 49 845
e 49 146
e 49 209
e 49 852
e 49 772
e 49 58
e 49 235
e 50 684
e 50 396
e 50 290
e 51 372
e 51 794
e 51 603
e 51 663
e 51 988
e 52 529
e 52 497
e 52 277
e 52 822
e 52 726
e 53 223
e 53 666
e 53 619
e 53 310
e 53 734
e 54 218
e 54 289
e 54 620
e 54 216
e 54 771
e 54 856
e 54 154
e 54 529
e 54 777
e 54 813
e 56 851
e 56 286
e 56 864
e 56 459
e 56 167
e 56 486
e 57 690
e 57 276
e 57 858
e 58 60
e 58 861
e 58 789
e 58 441
e 58 93
e 58 73
e 58 632
e 58 241
e 58 923
e 58 355
e 60 89
e 60 763
e 61 809
e 61 768
e 61 696
e 62 968
e 62 609
e 62 784
e 62 906
e 65 319
e 65 576
e 65 392
e 67 383
e 67 460
e 67 393
e 67 319
e 67 625
e 68 280
e 68 542
e 68 697
e 68 760
e 69 526
e 69 456
e 69 223
e 70 845
e 70 716
e 70 445
e 70 393
e 70 417
e 72 330
e 72 582
e 72 209
e 72 591
e 72 768
e 73 558
e 73 118
e 73 529
e 73 169
e 73 399
e 74 102
e 74 949
e 74 477
e 74 292
e 74 841
e 75 269
e 75 225
e 75 767
e 75 444
e 75 366
e 75 118
e 75 293
e 75 262
e 79 703
e 82 146
e 82 808
e 82 396
e 82 458
e 83 251
e 83 482
e 83 989
e 83 440
e 83 821
e 83 460
e 83 956
e 83 152
e 83 273
e 84 736
e 84 89
e 84 590
e 84 292
e 87 969
e 87 278
e 87 198
e 88 200
e 88 614
e 88 744
e 88 471
e 88 577
e 88 927
e 88 906
e 89 336
e 89 483
e 89 243
e 90 337
e 90 627
e 90 842
e 90 800
e 90 889
e 90 361
e 91 916
e 91 691
e 91 769
e 91 604
e 92 443
e 92 910
e 92 653
e 93 203
e 93 532
e 95 894
e 95 387
e 95 317
e 95 835
e 95 625
e 95 840
e 98 929
e 98 932
e 98 979
e 99 223
e 99 312
e 99 865
e 99 353
e 101 458
e 101 365
e 101 728
e 101 296
e 101 213
e 102 991
e 102 650
e 102 353
e 103 754
e 103 421
e 107 503
e 107 202
e 107 505
e 108 228
e 108 475
e 108 963
e 109 803
e 109 872
e 109 427
e 109 670
e 110 207
e 110 696
e 110 456
e 111 559
e 111 237
e 111 136
e 111 923
e 112 340
e 112 141
e 112 588
e 112 670
e 113 354
e 113 228
e 113 284
e 113 364
e 114 655
e 114 306
e 114 563
e 114 566
e 114 706
e 115 505
e 115 318
e 115 447
e 115 123
e 115 236
e 115 419
e 116 640
e 116 450
e 116 353
e 116 613
e 116 937
e 116 597
e 118 235
e 118 641
e 118 388
e 118 670
e 118 977
e 118 667
e 118 733
e 118 929
e 121 696
e 121 283
e 121 990
e 122 511
e 122 880
e 122 531
e 122 278
e 122 472
e 123 329
e 123 740
e 123 128
e 124 836
e 124 185
e 124 308
e 124 727
e 124 153
e 127 445
e 127 225
e 127 706
e 127 129
e 127 227
e 128 731
e 129 846
e 129 474
e 130 938
e 130 350
e 130 310
e 130 679
e 131 861
e 131 596
e 131 642
e 131 875
e 131 894
e 131 548
e 135 173
e 135 895
e 135 246
e 136 956
e 136 862
e 136 161
e 137 506
e 137 466
e 137 726
e 141 658
e 141 223
e 142 646
e 142 950
e 142 640
e 142 939
e 142 231
e 143 994
e 143 753
e 143 779
e 143 403
e 143 992
e 143 723
e 144 971
e 144 750
e 144 944
e 145 365
e 145 457
e 145 900
e 146 974
e 146 422
e 146 667
e 146 316
e 147 484
e 147 516
e 147 620
e 147 997
e 148 668
e 148 382
e 148 888
e 148 394
e 148 509
e 148 469
e 148 538
e 149 454
e 149 861
e 149 326
e 149 199
e 150 867
e 150 243
e 150 815
e 150 326
e 151 376
e 151 776
e 151 177
e 151 929
e 151 465
e 152 280
e 152 336
e 152 792
e 152 576
e 152 709
e 152 427
e 152 607
e 153 217
e 153 551
e 153 413
e 153 878
e 154 598
e 154 429
e 154 729
e 155 269
e 155 907
e 160 237
e 160 535
e 160 530
e 160 201
e 161 348
e 161 551
e 161 949
e 161 845
e 161 619
e 161 877
e 162 978
e 162 321
e 162 845
e 164 565
e 164 306
e 164 909
e 164 551
e 164 611
e 164 457
e 166 261
e 166 841
e 166 839
e 166 365
e 166 815
e 166 542
e 167 319
e 167 291
e 167 678
e 167 348
e 167 528
e 167 457
e 167 203
e 169 880
e 169 208
e 169 397
e 169 856
e 171 377
e 171 833
e 171 807
e 172 766
e 172 205
e 172 398
e 172 971
e 172 699
e 173 649
e 173 683
e 173 913
e 173 483
e 173 285
e 174 364
e 174 695
e 174 514
e 174 232
e 175 260
e 175 570
e 175 265
e 175 516
e 176 245
e 176 427
e 176 919
e 176 503
e 176 946
e 177 853
e 177 295
e 177 382
e 178 230
e 178 736
e 178 604
e 180 402
e 180 596
e 181 537
e 181 243
e 181 478
e 181 838
e 181 193
e 181 924
e 182 243
e 182 992
e 182 752
e 182 371
e 182 436
e 182 225
e 182 686
e 183 309
e 183 814
e 183 440
e 183 362
e 183 247
e 183 233
e 185 330
e 185 538
e 186 226
e 186 320
e 186 705
e 187 590
e 187 822
e 187 609
e 187 575
e 188 835
e 188 719
e 188 994
e 188 525
e 188 962
e 188 426
e 188 968
e 189 733
e 189 829
e 189 565
e 189 488
e 189 915
e 189 865
e 189 265
e 190 584
e 190 606
e 190 709
e 191 302
e 191 341
e 191 956
e 191 455
e 191 494
e 191 393
e 193 250
e 193 837
e 194 281
e 194 818
e 194 977
e 197 556
e 197 737
e 197 344
e 197 526
e 198 955
e 198 856
e 199 888
e 199 239
e 200 749
e 200 969
e 200 817
e 200 895
e 200 354
e 201 735
e 201 888
e 202 312
e 202 405
e 203 927
e 204 610
e 204 971
e 204 505
e 204 928
e 204 397
e 205 314
e 205 803
e 205 302
e 205 734
e 205 345
e 206 228
e 206 746
e 206 396
e 206 980
e 207 731
e 207 676
e 207 523
e 207 303
e 208 644
e 208 614
e 209 901
e 209 714
e 209 888
e 209 570
e 211 829
e 211 364
e 211 850
e 211 412
e 213 707
e 213 517
e 214 860
e 214 661
e 216 768
e 216 846
e 216 376
e 216 663
e 217 785
e 217 565
e 217 694
e 217 355
e 218 994
e 218 232
e 218 381
e 219 675
e 219 860
e 219 730
e 220 479
e 220 419
e 220 783
e 220 238
e 220 808
e 220 284
e 220 861
e 220 349
e 220 340
e 222 378
e 222 487
e 222 731
e 225 382
e 226 677
e 226 709
e 226 622
e 227 944
e 227 492
e 227 735
e 227 818
e 227 685
e 228 567
e 228 903
e 228 531
e 228 325
e 230 950
e 230 920
e 230 292
e 230 941
e 231 497
e 231 586
e 232 872
e 232 289
e 232 751
e 232 651
e 232 703
e 233 340
e 233 945
e 233 768
e 233 610
e 233 475
e 233 935
e 235 739
e 235 671
e 235 800
e 235 417
e 235 704
e 236 319
e 236 664
e 236 885
e 237 281
e 237 972
e 237 772
e 237 335
e 238 899
e 238 563
e 238 961
e 239 709
e 239 931
e 240 278
e 240 555
e 240 694
e 241 547
e 241 443
e 243 683
e 243 966
e 243 440
e 244 932
e 244 704
e 244 402
e 244 557
e 245 852
e 245 832
e 246 815
e 246 435
e 246 833
e 246 304
e 246 296
e 247 615
e 247 436
e 247 671
e 247 524
e 250 525
e 250 350
e 250 881
e 250 871
e 250 865
e 251 850
e 252 853
e 252 493
e 252 344
e 252 425
e 253 687
e 253 650
e 253 501
e 254 400
e 254 379
e 254 740
e 254 789
e 254 367
e 255 477
e 255 493
e 255 786
e 255 776
e 255 446
e 256 836
e 256 460
e 256 609
e 256 978
e 256 444
e 256 679
e 256 463
e 257 431
e 257 565
e 260 675
e 260 348
e 260 974
e 261 410
e 261 325
e 262 721
e 262 961
e 262 523
e 263 314
e 263 648
e 263 735
e 264 865
e 264 969
e 264 582
e 264 349
e 264 377
e 264 769
e 264 565
e 265 729
e 265 586
e 267 438
e 267 589
e 267 627
e 268 648
e 268 892
e 268 905
e 268 802
e 268 439
e 269 393
e 272 580
e 272 521
e 272 429
e 273 304
e 273 380
e 273 410
e 274 701
e 274 850
e 274 574
e 274 298
e 274 748
e 275 931
e 275 881
e 275 570
e 275 378
e 275 418
e 276 636
e 276 304
e 276 695
e 276 372
e 277 318
e 277 367
e 277 814
e 277 711
e 277 678
e 277 526
e 278 516
e 280 591
e 281 550
e 281 391
e 281 402
e 281 865
e 282 741
e 282 632
e 282 800
e 282 555
e 282 821
e 283 907
e 283 919
e 284 684
e 284 855
e 284 949
e 284 406
e 285 767
e 285 781
e 286 446
e 286 478
e 286 394
e 287 451
e 287 837
e 287 486
e 287 505
e 289 733
e 289 529
e 290 593
e 290 591
e 291 372
e 291 894
e 291 775
e 291 637
e 292 537
e 292 762
e 292 498
e 292 698
e 293 577
e 293 501
e 293 856
e 295 867
e 295 469
e 296 419
e 297 599
e 297 865
e 297 691
e 298 921
e 298 508
e 298 405
e 300 937
e 300 727
e 300 323
e 302 442
e 303 839
e 303 563
e 303 383
e 303 393
e 303 438
e 304 637
e 304 522
e 304 685
e 304 487
e 305 882
e 305 953
e 305 913
e 305 437
e 305 393
e 306 368
e 307 379
e 307 889
e 307 513
e 307 969
e 307 839
e 308 710
e 308 361
e 308 392
e 309 399
e 309 375
e 309 437
e 309 472
e 310 451
e 310 830
e 310 459
e 311 847
e 311 473
e 311 361
e 312 900
e 312 329
e 312 405
e 314 542
e 314 435
e 314 976
e 314 399
e 314 849
e 314 357
e 315 849
e 315 435
e 315 743
e 316 929
e 316 767
e 317 458
e 317 989
e 317 783
e 318 327
e 318 487
e 320 729
e 320 474
e 320 830
e 320 481
e 321 892
e 321 368
e 321 886
e 321 400
e 321 903
e 323 783
e 323 928
e 323 846
e 323 790
e 324 469
e 324 511
e 324 978
e 325 517
e 325 730
e 326 392
e 326 487
e 326 609
e 326 599
e 326 632
e 327 907
e 327 794
e 329 606
e 330 839
e 330 931
e 330 525
e 330 878
e 331 433
e 331 510
e 331 721
e 332 807
e 332 945
e 332 617
e 332 965
e 335 827
e 335 461
e 335 765
e 335 772
e 336 368
e 336 680
e 336 476
e 336 931
e 336 864
e 337 730
e 337 533
e 337 403
e 337 884
e 339 662
e 339 433
e 340 470
e 340 403
e 341 920
e 341 439
e 341 678
e 341 822
e 341 571
e 341 997
e 344 792
e 345 835
e 345 470
e 345 585
e 345 974
e 348 848
e 348 510
e 348 554
e 348 565
e 349 689
e 349 619
e 349 616
e 349 484
e 350 829
e 350 778
e 350 650
e 351 816
e 351 833
e 351 508
e 353 554
e 353 561
e 353 944
e 354 698
e 354 483
e 354 537
e 355 546
e 355 385
e 355 485
e 355 683
e 357 809
e 357 460
e 357 524
e 358 513
e 358 569
e 361 996
e 361 772
e 362 365
e 362 818
e 362 651
e 364 404
e 364 419
e 365 814
e 365 981
e 365 421
e 365 452
e 365 459
e 365 477
e 366 452
e 366 845
e 366 498
e 366 607
e 366 794
e 366 996
e 366 593
e 366 792
e 367 795
e 368 406
e 368 669
e 368 585
e 368 971
e 368 575
e 370 402
e 370 701
e 370 945
e 370 392
e 370 611
e 370 958
e 371 528
e 371 546
e 372 660
e 372 530
e 372 442
e 372 619
e 372 879
e 372 795
e 374 991
e 374 882
e 374 555
e 375 588
e 375 705
e 375 733
e 376 868
e 376 789
e 376 454
e 376 929
e 376 722
e 377 497
e 377 606
e 377 818
e 378 640
e 378 604
e 378 675
e 378 645
e 379 744
e 380 383
e 380 916
e 381 476
e 381 426
e 381 687
e 381 779
e 382 451
e 382 384
e 382 920
e 382 423
e 382 710
e 383 891
e 383 580
e 384 867
e 384 884
e 385 517
e 385 825
e 385 463
e 386 721
e 386 994
e 386 812
e 386 920
e 387 695
e 387 531
e 388 726
e 388 854
e 391 891
e 391 513
e 391 439
e 392 396
e 392 704
e 392 522
e 393 441
e 394 397
e 394 445
e 394 848
e 395 850
e 395 450
e 395 398
e 395 955
e 396 867
e 396 966
e 396 787
e 396 736
e 396 788
e 397 709
e 398 864
e 398 940
e 399 806
e 399 576
e 400 824
e 400 565
e 400 609
e 402 660
e 403 671
e 403 931
e 403 992
e 403 643
e 404 450
e 404 555
e 405 475
e 405 641
e 405 968
e 406 422
e 410 921
e 411 694
e 411 873
e 411 865
e 412 653
e 413 505
e 413 996
e 417 980
e 418 455
e 418 435
e 418 950
e 419 443
e 419 452
e 419 775
e 421 441
e 422 452
e 422 884
e 423 853
e 423 427
e 423 816
e 423 659
e 425 580
e 425 528
e 425 561
e 426 558
e 426 906
e 426 781
e 426 509
e 427 951
e 429 454
e 429 513
e 430 867
e 430 573
e 430 459
e 430 719
e 431 898
e 431 466
e 431 649
e 433 836
e 435 460
e 435 697
e 435 937
e 435 898
e 436 565
e 437 799
e 438 542
e 438 618
e 438 454
e 439 875
e 439 460
e 439 566
e 439 603
e 440 616
e 441 598
e 441 640
e 441 525
e 442 728
e 442 658
e 442 660
e 442 961
e 443 481
e 443 683
e 443 800
e 443 847
e 444 952
e 444 509
e 444 788
e 444 812
e 444 533
e 445 859
e 446 727
e 446 566
e 446 768
e 446 616
e 447 578
e 447 888
e 447 849
e 450 675
e 450 921
e 451 760
e 451 565
e 451 763
e 451 556
e 451 707
e 452 582
e 454 604
e 455 679
e 455 766
e 456 924
e 456 727
e 458 832
e 458 743
e 459 653
e 459 678
e 459 855
e 460 868
e 460 939
e 460 680
e 460 661
e 460 824
e 461 573
e 461 605
e 461 711
e 463 648
e 463 550
e 465 497
e 465 749
e 465 839
e 465 660
e 465 838
e 466 907
e 466 744
e 466 494
e 466 958
e 469 476
e 469 505
e 470 513
e 470 622
e 471 653
e 472 838
e 472 488
e 473 616
e 473 611
e 474 546
e 475 737
e 475 756
e 475 861
e 476 570
e 476 482
e 477 691
e 477 766
e 477 830
e 477 485
e 478 603
e 478 611
e 478 650
e 478 651
e 479 771
e 479 589
e 479 710
e 479 867
e 481 974
e 482 789
e 482 894
e 482 675
e 483 694
e 484 492
e 484 553
e 485 737
e 486 571
e 486 753
e 486 627
e 487 781
e 487 966
e 487 640
e 487 786
e 488 829
e 488 936
e 488 719
e 489 576
e 489 817
e 489 516
e 490 694
e 490 555
e 490 836
e 491 641
e 491 557
e 491 567
e 492 596
e 492 949
e 492 946
e 493 694
e 493 559
e 493 988
e 494 502
e 494 688
e 494 605
e 494 875
e 494 931
e 497 526
e 497 598
e 497 736
e 497 585
e 498 751
e 501 933
e 502 633
e 502 752
e 503 770
e 503 721
e 505 753
e 505 909
e 505 561
e 505 527
e 506 655
e 506 911
e 506 861
e 507 516
e 507 627
e 507 754
e 507 709
e 508 580
e 508 513
e 509 990
e 509 737
e 509 902
e 510 839
e 510 701
e 510 636
e 511 633
e 511 809
e 513 841
e 513 561
e 513 581
e 513 605
e 514 921
e 514 885
e 514 565
e 514 782
e 514 540
e 516 855
e 516 831
e 517 540
e 521 895
e 521 576
e 522 825
e 523 970
e 524 686
e 524 968
e 524 760
e 524 783
e 525 787
e 525 572
e 527 728
e 527 616
e 528 991
e 528 618
e 528 736
e 529 814
e 529 856
e 529 977
e 530 555
e 530 996
e 530 896
e 531 836
e 531 670
e 531 813
e 531 937
e 532 953
e 533 788
e 533 986
e 535 907
e 535 855
e 537 671
e 537 559
e 537 809
e 538 623
e 538 848
e 540 547
e 540 814
e 540 567
e 540 910
e 542 547
e 546 905
e 546 785
e 546 807
e 546 566
e 548 970
e 548 696
e 550 703
e 550 986
e 550 829
e 551 771
e 551 675
e 551 699
e 551 614
e 553 691
e 553 991
e 553 696
e 553 741
e 554 837
e 555 699
e 555 878
e 555 756
e 556 778
e 556 706
e 557 944
e 557 808
e 558 994
e 558 984
e 558 862
e 559 850
e 560 641
e 560 763
e 560 663
e 561 760
e 561 777
e 563 662
e 563 582
e 565 976
e 565 800
e 566 873
e 567 678
e 569 684
e 569 788
e 569 700
e 570 584
e 571 576
e 571 620
e 571 722
e 571 913
e 571 910
e 572 661
e 572 652
e 573 709
e 573 809
e 574 730
e 574 867
e 575 952
e 575 997
e 576 596
e 576 652
e 576 702
e 576 622
e 577 989
e 578 689
e 578 911
e 580 623
e 580 866
e 580 940
e 580 905
e 581 700
e 581 586
e 582 722
e 582 727
e 584 726
e 586 699
e 588 822
e 588 920
e 589 927
e 589 637
e 589 690
e 590 739
e 590 910
e 591 754
e 593 645
e 596 936
e 597 644
e 597 736
e 597 765
e 598 911
e 598 767
e 599 712
e 599 822
e 603 856
e 603 981
e 604 991
e 604 744
e 604 920
e 604 606
e 604 824
e 604 867
e 605 912
e 605 902
e 605 950
e 606 774
e 607 858
e 609 766
e 610 751
e 610 871
e 611 687
e 611 854
e 611 695
e 613 702
e 613 785
e 614 676
e 614 615
e 614 716
e 614 915
e 615 831
e 616 798
e 616 806
e 617 955
e 617 709
e 618 842
e 618 774
e 618 920
e 619 915
e 619 739
e 620 855
e 622 990
e 622 939
e 622 905
e 623 749
e 625 871
e 625 752
e 627 837
e 632 795
e 632 831
e 633 801
e 636 679
e 640 855
e 640 788
e 640 827
e 641 955
e 642 779
e 642 996
e 642 982
e 643 836
e 643 986
e 644 676
e 645 965
e 645 835
e 646 898
e 646 972
e 646 937
e 650 816
e 650 989
e 650 969
e 651 872
e 651 711
e 651 750
e 652 966
e 655 981
e 655 961
e 658 880
e 658 979
e 659 801
e 659 920
e 659 848
e 660 831
e 661 708
e 662 685
e 662 910
e 662 952
e 663 705
e 663 866
e 664 701
e 664 686
e 666 977
e 666 834
e 667 961
e 667 944
e 667 815
e 667 988
e 668 919
e 668 909
e 668 847
e 669 799
e 669 955
e 670 838
e 670 817
e 670 932
e 670 956
e 671 766
e 672 701
e 672 779
e 675 770
e 676 729
e 676 976
e 677 756
e 677 992
e 677 977
e 678 752
e 679 855
e 679 797
e 680 768
e 683 700
e 683 778
e 684 906
e 685 832
e 685 918
e 685 835
e 688 719
e 688 882
e 689 912
e 690 807
e 690 754
e 695 936
e 697 834
e 697 940
e 698 782
e 698 749
e 698 803
e 699 980
e 699 935
e 700 982
e 700 868
e 700 888
e 702 977
e 704 808
e 705 994
e 705 736
e 705 800
e 706 891
e 708 788
e 708 833
e 708 729
e 708 879
e 709 941
e 710 941
e 711 875
e 711 877
e 711 859
e 712 789
e 712 955
e 712 992
e 714 774
e 714 884
e 716 872
e 716 806
e 719 865
e 719 798
e 722 837
e 722 848
e 723 924
e 723 851
e 726 751
e 726 937
e 729 797
e 729 866
e 730 912
e 730 777
e 733 756
e 734 830
e 735 888
e 736 976
e 736 803
e 737 740
e 739 782
e 740 894
e 741 806
e 741 894
e 743 798
e 744 806
e 746 912
e 748 862
e 748 858
e 748 860
e 749 822
e 750 989
e 750 851
e 750 815
e 751 968
e 753 923
e 754 816
e 756 891
e 756 974
e 760 814
e 762 935
e 763 937
e 765 935
e 765 972
e 766 788
e 766 990
e 766 933
e 767 797
e 768 769
e 769 988
e 772 840
e 774 792
e 775 944
e 776 834
e 778 814
e 779 882
e 782 980
e 783 881
e 784 817
e 784 801
e 787 800
e 787 894
e 790 896
e 792 900
e 792 861
e 794 854
e 797 972
e 798 858
e 801 847
e 802 862
e 802 912
e 806 892
e 808 833
e 808 899
e 808 974
e 809 875
e 814 877
e 815 953
e 818 933
e 818 885
e 824 859
e 825 959
e 827 911
e 828 940
e 828 977
e 831 953
e 831 886
e 833 976
e 833 892
e 833 840
e 834 961
e 837 859
e 837 886
e 840 918
e 845 892
e 845 859
e 846 899
e 851 935
e 852 946
e 860 992
e 862 949
e 864 951
e 864 915
e 871 963
e 873 916
e 877 933
e 877 901
e 879 978
e 879 979
e 884 889
e 885 911
e 886 965
e 886 889
e 892 971
e 894 928
e 896 936
e 899 955
e 900 962
e 900 970
e 901 979
e 903 981
e 909 974
e 910 959
e 910 938
e 911 984
e 920 981
e 928 936
e 931 944
e 931 959
e 932 953
e 933 981
e 933 956
e 946 962
e 949 950
e 956 959
e 956 982
e 958 966
e 959 969
e 968 978
