txt_Ins/graph-1000-92.txt
n 1000
e 0 175
e 0 761
e 0 24
e 0 550
e 0 418
e 0 871
e 0 939
e 0 981
e 1 513
e 1 384
e 1 660
e 1 250
e 1 140
e 1 325
e 1 988
e 3 928
e 3 651
e 3 29
e 3 363
e 4 340
e 4 807
e 4 509
e 4 154
e 4 897
e 4 148
e 5 102
e 5 117
e 5 470
e 5 798
e 5 29
e 6 827
e 6 234
e 6 932
e 9 229
e 9 325
e 9 532
e 9 900
e 9 20
e 11 857
e 11 217
e 11 937
e 11 648
e 12 289
e 12 150
e 12 700
e 12 824
e 13 411
e 13 960
e 13 401
e 14 505
e 14 381
e 14 525
e 14 21
e 14 531
e 14 742
e 15 122
e 15 583
e 15 609
e 15 78
e 15 385
e 16 983
e 16 291
e 16 840
e 16 266
e 17 36
e 17 282
e 17 964
e 17 78
e 17 140
e 18 706
e 18 174
e 18 108
e 19 173
e 19 917
e 19 534
e 19 935
e 20 541
e 20 689
e 20 530
e 20 302
e 21 51
e 21 256
e 21 952
e 22 366
e 22 890
e 22 402
e 22 179
e 23 160
e 23 172
e 23 785
e 24 566
e 24 302
e 24 841
e 24 696
e 25 762
e 25 617
e 25 420
e 26 536
e 26 294
e 26 742
e 27 679
e 27 426
e 27 149
e 28 475
e 28 86
e 28 373
e 28 945
e 28 281
e 28 614
e 28 962
e 28 901
e 29 115
e 29 275
e 29 826
e 29 319
e 29 395
e 29 295
e 30 401
e 30 206
e 30 651
e 30 129
e 30 847
e 30 465
e 31 930
e 31 288
e 31 331
e 31 74
e 31 128
e 31 967
e 33 632
e 33 215
e 33 820
e 33 380
e 34 41
e 34 127
e 34 965
e 34 797
e 36 113
e 36 812
e 36 328
e 36 200
e 36 686
e 37 736
e 37 335
e 37 213
e 38 330
e 38 828
e 38 995
e 38 249
e 39 636
e 39 769
e 39 651
e 39 549
e 39 660
e 39 580
e 40 639
e 40 51
e 40 477
e 41 114
e 41 150
e 41 853
e 42 338
e 42 64
e 42 788
e 42 295
e 43 516
e 43 357
e 43 371
e 44 671
e 44 950
e 44 121
e 44 597
e 44 745
e 44 657
e 46 806
e 46 789
e 46 512
e 47 811
e 47 926
e 47 866
e 47 930
e 47 927
e 47 371
e 48 844
e 48 145
e 48 208
e 48 851
e 48 771
e 48 57
e 48 234
e 49 683
e 49 395
e 49 289
e 50 371
e 50 793
e 50 602
e 50 662
e 50 987
e 51 528
e 51 496
e 51 276
e 51 821
e 51 725
e 52 222
e 52 665
e 52 618
e 52 309
e 52 733
e 53 217
e 53 288
e 53 619
e 53 215
e 53 770
e 53 855
e 53 153
e 53 528
e 53 776
e 53 812
e 55 850
e 55 285
e 55 863
e 55 458
e 55 166
e 55 485
e 56 689
e 56 275
e 56 857
e 57 59
e 57 860
e 57 788
e 57 440
e 57 92
e 57 72
e 57 631
e 57 240
e 57 922
e 57 354
e 59 88
e 59 762
e 60 808
e 60 767
e 60 695
e 61 967
e 61 608
e 61 783
e 61 905
e 64 318
e 64 575
e 64 391
e 66 382
e 66 459
e 66 392
e 66 318
e 66 624
e 67 279
e 67 541
e 67 696
e 67 759
e 68 525
e 68 455
e 68 222
e 69 844
e 69 715
e 69 444
e 69 392
e 69 416
e 71 329
e 71 581
e 71 208
e 71 590
e 71 767
e 72 557
e 72 117
e 72 528
e 72 168
e 72 398
e 73 101
e 73 948
e 73 476
e 73 291
e 73 840
e 74 268
e 74 224
e 74 766
e 74 443
e 74 365
e 74 117
e 74 292
e 74 261
e 78 702
e 81 145
e 81 807
e 81 395
e 81 457
e 82 250
e 82 481
e 82 988
e 82 439
e 82 820
e 82 459
e 82 955
e 82 151
e 82 272
e 83 735
e 83 88
e 83 589
e 83 291
e 86 968
e 86 277
e 86 197
e 87 199
e 87 613
e 87 743
e 87 470
e 87 576
e 87 926
e 87 905
e 88 335
e 88 482
e 88 242
e 89 336
e 89 626
e 89 841
e 89 799
e 89 888
e 89 360
e 90 915
e 90 690
e 90 768
e 90 603
e 91 442
e 91 909
e 91 652
e 92 202
e 92 531
e 94 893
e 94 386
e 94 316
e 94 834
e 94 624
e 94 839
e 97 928
e 97 931
e 97 978
e 98 222
e 98 311
e 98 864
e 98 352
e 100 457
e 100 364
e 100 727
e 100 295
e 100 212
e 101 990
e 101 649
e 101 352
e 102 753
e 102 420
e 106 502
e 106 201
e 106 504
e 107 227
e 107 474
e 107 962
e 108 802
e 108 871
e 108 426
e 108 669
e 109 206
e 109 695
e 109 455
e 110 558
e 110 236
e 110 135
e 110 922
e 111 339
e 111 140
e 111 587
e 111 669
e 112 353
e 112 227
e 112 283
e 112 363
e 113 654
e 113 305
e 113 562
e 113 565
e 113 705
e 114 504
e 114 317
e 114 446
e 114 122
e 114 235
e 114 418
e 115 639
e 115 449
e 115 352
e 115 612
e 115 936
e 115 596
e 117 234
e 117 640
e 117 387
e 117 669
e 117 976
e 117 666
e 117 732
e 117 928
e 120 695
e 120 282
e 120 989
e 121 510
e 121 879
e 121 530
e 121 277
e 121 471
e 122 328
e 122 739
e 122 127
e 123 835
e 123 184
e 123 307
e 123 726
e 123 152
e 126 444
e 126 224
e 126 705
e 126 128
e 126 226
e 127 730
e 128 845
e 128 473
e 129 937
e 129 349
e 129 309
e 129 678
e 130 860
e 130 595
e 130 641
e 130 874
e 130 893
e 130 547
e 134 172
e 134 894
e 134 245
e 135 955
e 135 861
e 135 160
e 136 505
e 136 465
e 136 725
e 140 657
e 140 222
e 141 645
e 141 949
e 141 639
e 141 938
e 141 230
e 142 993
e 142 752
e 142 778
e 142 402
e 142 991
e 142 722
e 143 970
e 143 749
e 143 943
e 144 364
e 144 456
e 144 899
e 145 973
e 145 421
e 145 666
e 145 315
e 146 483
e 146 515
e 146 619
e 146 996
e 147 667
e 147 381
e 147 887
e 147 393
e 147 508
e 147 468
e 147 537
e 148 453
e 148 860
e 148 325
e 148 198
e 149 866
e 149 242
e 149 814
e 149 325
e 150 375
e 150 775
e 150 176
e 150 928
e 150 464
e 151 279
e 151 335
e 151 791
e 151 575
e 151 708
e 151 426
e 151 606
e 152 216
e 152 550
e 152 412
e 152 877
e 153 597
e 153 428
e 153 728
e 154 268
e 154 906
e 159 236
e 159 534
e 159 529
e 159 200
e 160 347
e 160 550
e 160 948
e 160 844
e 160 618
e 160 876
e 161 977
e 161 320
e 161 844
e 163 564
e 163 305
e 163 908
e 163 550
e 163 610
e 163 456
e 165 260
e 165 840
e 165 838
e 165 364
e 165 814
e 165 541
e 166 318
e 166 290
e 166 677
e 166 347
e 166 527
e 166 456
e 166 202
e 168 879
e 168 207
e 168 396
e 168 855
e 170 376
e 170 832
e 170 806
e 171 765
e 171 204
e 171 397
e 171 970
e 171 698
e 172 648
e 172 682
e 172 912
e 172 482
e 172 284
e 173 363
e 173 694
e 173 513
e 173 231
e 174 259
e 174 569
e 174 264
e 174 515
e 175 244
e 175 426
e 175 918
e 175 502
e 175 945
e 176 852
e 176 294
e 176 381
e 177 229
e 177 735
e 177 603
e 179 401
e 179 595
e 180 536
e 180 242
e 180 477
e 180 837
e 180 192
e 180 923
e 181 242
e 181 991
e 181 751
e 181 370
e 181 435
e 181 224
e 181 685
e 182 308
e 182 813
e 182 439
e 182 361
e 182 246
e 182 232
e 184 329
e 184 537
e 185 225
e 185 319
e 185 704
e 186 589
e 186 821
e 186 608
e 186 574
e 187 834
e 187 718
e 187 993
e 187 524
e 187 961
e 187 425
e 187 967
e 188 732
e 188 828
e 188 564
e 188 487
e 188 914
e 188 864
e 188 264
e 189 583
e 189 605
e 189 708
e 190 301
e 190 340
e 190 955
e 190 454
e 190 493
e 190 392
e 192 249
e 192 836
e 193 280
e 193 817
e 193 976
e 196 555
e 196 736
e 196 343
e 196 525
e 197 954
e 197 855
e 198 887
e 198 238
e 199 748
e 199 968
e 199 816
e 199 894
e 199 353
e 200 734
e 200 887
e 201 311
e 201 404
e 202 926
e 203 609
e 203 970
e 203 504
e 203 927
e 203 396
e 204 313
e 204 802
e 204 301
e 204 733
e 204 344
e 205 227
e 205 745
e 205 395
e 205 979
e 206 730
e 206 675
e 206 522
e 206 302
e 207 643
e 207 613
e 208 900
e 208 713
e 208 887
e 208 569
e 210 828
e 210 363
e 210 849
e 210 411
e 212 706
e 212 516
e 213 859
e 213 660
e 215 767
e 215 845
e 215 375
e 215 662
e 216 784
e 216 564
e 216 693
e 216 354
e 217 993
e 217 231
e 217 380
e 218 674
e 218 859
e 218 729
e 219 478
e 219 418
e 219 782
e 219 237
e 219 807
e 219 283
e 219 860
e 219 348
e 219 339
e 221 377
e 221 486
e 221 730
e 224 381
e 225 676
e 225 708
e 225 621
e 226 943
e 226 491
e 226 734
e 226 817
e 226 684
e 227 566
e 227 902
e 227 530
e 227 324
e 229 949
e 229 919
e 229 291
e 229 940
e 230 496
e 230 585
e 231 871
e 231 288
e 231 750
e 231 650
e 231 702
e 232 339
e 232 944
e 232 767
e 232 609
e 232 474
e 232 934
e 234 738
e 234 670
e 234 799
e 234 416
e 234 703
e 235 318
e 235 663
e 235 884
e 236 280
e 236 971
e 236 771
e 236 334
e 237 898
e 237 562
e 237 960
e 238 708
e 238 930
e 239 277
e 239 554
e 239 693
e 240 546
e 240 442
e 242 682
e 242 965
e 242 439
e 243 931
e 243 703
e 243 401
e 243 556
e 244 851
e 244 831
e 245 814
e 245 434
e 245 832
e 245 303
e 245 295
e 246 614
e 246 435
e 246 670
e 246 523
e 249 524
e 249 349
e 249 880
e 249 870
e 249 864
e 250 849
e 251 852
e 251 492
e 251 343
e 251 424
e 252 686
e 252 649
e 252 500
e 253 399
e 253 378
e 253 739
e 253 788
e 253 366
e 254 476
e 254 492
e 254 785
e 254 775
e 254 445
e 255 835
e 255 459
e 255 608
e 255 977
e 255 443
e 255 678
e 255 462
e 256 430
e 256 564
e 259 674
e 259 347
e 259 973
e 260 409
e 260 324
e 261 720
e 261 960
e 261 522
e 262 313
e 262 647
e 262 734
e 263 864
e 263 968
e 263 581
e 263 348
e 263 376
e 263 768
e 263 564
e 264 728
e 264 585
e 266 437
e 266 588
e 266 626
e 267 647
e 267 891
e 267 904
e 267 801
e 267 438
e 268 392
e 271 579
e 271 520
e 271 428
e 272 303
e 272 379
e 272 409
e 273 700
e 273 849
e 273 573
e 273 297
e 273 747
e 274 930
e 274 880
e 274 569
e 274 377
e 274 417
e 275 635
e 275 303
e 275 694
e 275 371
e 276 317
e 276 366
e 276 813
e 276 710
e 276 677
e 276 525
e 277 515
e 279 590
e 280 549
e 280 390
e 280 401
e 280 864
e 281 740
e 281 631
e 281 799
e 281 554
e 281 820
e 282 906
e 282 918
e 283 683
e 283 854
e 283 948
e 283 405
e 284 766
e 284 780
e 285 445
e 285 477
e 285 393
e 286 450
e 286 836
e 286 485
e 286 504
e 288 732
e 288 528
e 289 592
e 289 590
e 290 371
e 290 893
e 290 774
e 290 636
e 291 536
e 291 761
e 291 497
e 291 697
e 292 576
e 292 500
e 292 855
e 294 866
e 294 468
e 295 418
e 296 598
e 296 864
e 296 690
e 297 920
e 297 507
e 297 404
e 299 936
e 299 726
e 299 322
e 301 441
e 302 838
e 302 562
e 302 382
e 302 392
e 302 437
e 303 636
e 303 521
e 303 684
e 303 486
e 304 881
e 304 952
e 304 912
e 304 436
e 304 392
e 305 367
e 306 378
e 306 888
e 306 512
e 306 968
e 306 838
e 307 709
e 307 360
e 307 391
e 308 398
e 308 374
e 308 436
e 308 471
e 309 450
e 309 829
e 309 458
e 310 846
e 310 472
e 310 360
e 311 899
e 311 328
e 311 404
e 313 541
e 313 434
e 313 975
e 313 398
e 313 848
e 313 356
e 314 848
e 314 434
e 314 742
e 315 928
e 315 766
e 316 457
e 316 988
e 316 782
e 317 326
e 317 486
e 319 728
e 319 473
e 319 829
e 319 480
e 320 891
e 320 367
e 320 885
e 320 399
e 320 902
e 322 782
e 322 927
e 322 845
e 322 789
e 323 468
e 323 510
e 323 977
e 324 516
e 324 729
e 325 391
e 325 486
e 325 608
e 325 598
e 325 631
e 326 906
e 326 793
e 328 605
e 329 838
e 329 930
e 329 524
e 329 877
e 330 432
e 330 509
e 330 720
e 331 806
e 331 944
e 331 616
e 331 964
e 334 826
e 334 460
e 334 764
e 334 771
e 335 367
e 335 679
e 335 475
e 335 930
e 335 863
e 336 729
e 336 532
e 336 402
e 336 883
e 338 661
e 338 432
e 339 469
e 339 402
e 340 919
e 340 438
e 340 677
e 340 821
e 340 570
e 340 996
e 343 791
e 344 834
e 344 469
e 344 584
e 344 973
e 347 847
e 347 509
e 347 553
e 347 564
e 348 688
e 348 618
e 348 615
e 348 483
e 349 828
e 349 777
e 349 649
e 350 815
e 350 832
e 350 507
e 352 553
e 352 560
e 352 943
e 353 697
e 353 482
e 353 536
e 354 545
e 354 384
e 354 484
e 354 682
e 356 808
e 356 459
e 356 523
e 357 512
e 357 568
e 360 995
e 360 771
e 361 364
e 361 817
e 361 650
e 363 403
e 363 418
e 364 813
e 364 980
e 364 420
e 364 451
e 364 458
e 364 476
e 365 451
e 365 844
e 365 497
e 365 606
e 365 793
e 365 995
e 365 592
e 365 791
e 366 794
e 367 405
e 367 668
e 367 584
e 367 970
e 367 574
e 369 401
e 369 700
e 369 944
e 369 391
e 369 610
e 369 957
e 370 527
e 370 545
e 371 659
e 371 529
e 371 441
e 371 618
e 371 878
e 371 794
e 373 990
e 373 881
e 373 554
e 374 587
e 374 704
e 374 732
e 375 867
e 375 788
e 375 453
e 375 928
e 375 721
e 376 496
e 376 605
e 376 817
e 377 639
e 377 603
e 377 674
e 377 644
e 378 743
e 379 382
e 379 915
e 380 475
e 380 425
e 380 686
e 380 778
e 381 450
e 381 383
e 381 919
e 381 422
e 381 709
e 382 890
e 382 579
e 383 866
e 383 883
e 384 516
e 384 824
e 384 462
e 385 720
e 385 993
e 385 811
e 385 919
e 386 694
e 386 530
e 387 725
e 387 853
e 390 890
e 390 512
e 390 438
e 391 395
e 391 703
e 391 521
e 392 440
e 393 396
e 393 444
e 393 847
e 394 849
e 394 449
e 394 397
e 394 954
e 395 866
e 395 965
e 395 786
e 395 735
e 395 787
e 396 708
e 397 863
e 397 939
e 398 805
e 398 575
e 399 823
e 399 564
e 399 608
e 401 659
e 402 670
e 402 930
e 402 991
e 402 642
e 403 449
e 403 554
e 404 474
e 404 640
e 404 967
e 405 421
e 409 920
e 410 693
e 410 872
e 410 864
e 411 652
e 412 504
e 412 995
e 416 979
e 417 454
e 417 434
e 417 949
e 418 442
e 418 451
e 418 774
e 420 440
e 421 451
e 421 883
e 422 852
e 422 426
e 422 815
e 422 658
e 424 579
e 424 527
e 424 560
e 425 557
e 425 905
e 425 780
e 425 508
e 426 950
e 428 453
e 428 512
e 429 866
e 429 572
e 429 458
e 429 718
e 430 897
e 430 465
e 430 648
e 432 835
e 434 459
e 434 696
e 434 936
e 434 897
e 435 564
e 436 798
e 437 541
e 437 617
e 437 453
e 438 874
e 438 459
e 438 565
e 438 602
e 439 615
e 440 597
e 440 639
e 440 524
e 441 727
e 441 657
e 441 659
e 441 960
e 442 480
e 442 682
e 442 799
e 442 846
e 443 951
e 443 508
e 443 787
e 443 811
e 443 532
e 444 858
e 445 726
e 445 565
e 445 767
e 445 615
e 446 577
e 446 887
e 446 848
e 449 674
e 449 920
e 450 759
e 450 564
e 450 762
e 450 555
e 450 706
e 451 581
e 453 603
e 454 678
e 454 765
e 455 923
e 455 726
e 457 831
e 457 742
e 458 652
e 458 677
e 458 854
e 459 867
e 459 938
e 459 679
e 459 660
e 459 823
e 460 572
e 460 604
e 460 710
e 462 647
e 462 549
e 464 496
e 464 748
e 464 838
e 464 659
e 464 837
e 465 906
e 465 743
e 465 493
e 465 957
e 468 475
e 468 504
e 469 512
e 469 621
e 470 652
e 471 837
e 471 487
e 472 615
e 472 610
e 473 545
e 474 736
e 474 755
e 474 860
e 475 569
e 475 481
e 476 690
e 476 765
e 476 829
e 476 484
e 477 602
e 477 610
e 477 649
e 477 650
e 478 770
e 478 588
e 478 709
e 478 866
e 480 973
e 481 788
e 481 893
e 481 674
e 482 693
e 483 491
e 483 552
e 484 736
e 485 570
e 485 752
e 485 626
e 486 780
e 486 965
e 486 639
e 486 785
e 487 828
e 487 935
e 487 718
e 488 575
e 488 816
e 488 515
e 489 693
e 489 554
e 489 835
e 490 640
e 490 556
e 490 566
e 491 595
e 491 948
e 491 945
e 492 693
e 492 558
e 492 987
e 493 501
e 493 687
e 493 604
e 493 874
e 493 930
e 496 525
e 496 597
e 496 735
e 496 584
e 497 750
e 500 932
e 501 632
e 501 751
e 502 769
e 502 720
e 504 752
e 504 908
e 504 560
e 504 526
e 505 654
e 505 910
e 505 860
e 506 515
e 506 626
e 506 753
e 506 708
e 507 579
e 507 512
e 508 989
e 508 736
e 508 901
e 509 838
e 509 700
e 509 635
e 510 632
e 510 808
e 512 840
e 512 560
e 512 580
e 512 604
e 513 920
e 513 884
e 513 564
e 513 781
e 513 539
e 515 854
e 515 830
e 516 539
e 520 894
e 520 575
e 521 824
e 522 969
e 523 685
e 523 967
e 523 759
e 523 782
e 524 786
e 524 571
e 526 727
e 526 615
e 527 990
e 527 617
e 527 735
e 528 813
e 528 855
e 528 976
e 529 554
e 529 995
e 529 895
e 530 835
e 530 669
e 530 812
e 530 936
e 531 952
e 532 787
e 532 985
e 534 906
e 534 854
e 536 670
e 536 558
e 536 808
e 537 622
e 537 847
e 539 546
e 539 813
e 539 566
e 539 909
e 541 546
e 545 904
e 545 784
e 545 806
e 545 565
e 547 969
e 547 695
e 549 702
e 549 985
e 549 828
e 550 770
e 550 674
e 550 698
e 550 613
e 552 690
e 552 990
e 552 695
e 552 740
e 553 836
e 554 698
e 554 877
e 554 755
e 555 777
e 555 705
e 556 943
e 556 807
e 557 993
e 557 983
e 557 861
e 558 849
e 559 640
e 559 762
e 559 662
e 560 759
e 560 776
e 562 661
e 562 581
e 564 975
e 564 799
e 565 872
e 566 677
e 568 683
e 568 787
e 568 699
e 569 583
e 570 575
e 570 619
e 570 721
e 570 912
e 570 909
e 571 660
e 571 651
e 572 708
e 572 808
e 573 729
e 573 866
e 574 951
e 574 996
e 575 595
e 575 651
e 575 701
e 575 621
e 576 988
e 577 688
e 577 910
e 579 622
e 579 865
e 579 939
e 579 904
e 580 699
e 580 585
e 581 721
e 581 726
e 583 725
e 585 698
e 587 821
e 587 919
e 588 926
e 588 636
e 588 689
e 589 738
e 589 909
e 590 753
e 592 644
e 595 935
e 596 643
e 596 735
e 596 764
e 597 910
e 597 766
e 598 711
e 598 821
e 602 855
e 602 980
e 603 990
e 603 743
e 603 919
e 603 605
e 603 823
e 603 866
e 604 911
e 604 901
e 604 949
e 605 773
e 606 857
e 608 765
e 609 750
e 609 870
e 610 686
e 610 853
e 610 694
e 612 701
e 612 784
e 613 675
e 613 614
e 613 715
e 613 914
e 614 830
e 615 797
e 615 805
e 616 954
e 616 708
e 617 841
e 617 773
e 617 919
e 618 914
e 618 738
e 619 854
e 621 989
e 621 938
e 621 904
e 622 748
e 624 870
e 624 751
e 626 836
e 631 794
e 631 830
e 632 800
e 635 678
e 639 854
e 639 787
e 639 826
e 640 954
e 641 778
e 641 995
e 641 981
e 642 835
e 642 985
e 643 675
e 644 964
e 644 834
e 645 897
e 645 971
e 645 936
e 649 815
e 649 988
e 649 968
e 650 871
e 650 710
e 650 749
e 651 965
e 654 980
e 654 960
e 657 879
e 657 978
e 658 800
e 658 919
e 658 847
e 659 830
e 660 707
e 661 684
e 661 909
e 661 951
e 662 704
e 662 865
e 663 700
e 663 685
e 665 976
e 665 833
e 666 960
e 666 943
e 666 814
e 666 987
e 667 918
e 667 908
e 667 846
e 668 798
e 668 954
e 669 837
e 669 816
e 669 931
e 669 955
e 670 765
e 671 700
e 671 778
e 674 769
e 675 728
e 675 975
e 676 755
e 676 991
e 676 976
e 677 751
e 678 854
e 678 796
e 679 767
e 682 699
e 682 777
e 683 905
e 684 831
e 684 917
e 684 834
e 687 718
e 687 881
e 688 911
e 689 806
e 689 753
e 694 935
e 696 833
e 696 939
e 697 781
e 697 748
e 697 802
e 698 979
e 698 934
e 699 981
e 699 867
e 699 887
e 701 976
e 703 807
e 704 993
e 704 735
e 704 799
e 705 890
e 707 787
e 707 832
e 707 728
e 707 878
e 708 940
e 709 940
e 710 874
e 710 876
e 710 858
e 711 788
e 711 954
e 711 991
e 713 773
e 713 883
e 715 871
e 715 805
e 718 864
e 718 797
e 721 836
e 721 847
e 722 923
e 722 850
e 725 750
e 725 936
e 728 796
e 728 865
e 729 911
e 729 776
e 732 755
e 733 829
e 734 887
e 735 975
e 735 802
e 736 739
e 738 781
e 739 893
e 740 805
e 740 893
e 742 797
e 743 805
e 745 911
e 747 861
e 747 857
e 747 859
e 748 821
e 749 988
e 749 850
e 749 814
e 750 967
e 752 922
e 753 815
e 755 890
e 755 973
e 759 813
e 761 934
e 762 936
e 764 934
e 764 971
e 765 787
e 765 989
e 765 932
e 766 796
e 767 768
e 768 987
e 771 839
e 773 791
e 774 943
e 775 833
e 777 813
e 778 881
e 781 979
e 782 880
e 783 816
e 783 800
e 786 799
e 786 893
e 789 895
e 791 899
e 791 860
e 793 853
e 796 971
e 797 857
e 800 846
e 801 861
e 801 911
e 805 891
e 807 832
e 807 898
e 807 973
e 808 874
e 813 876
e 814 952
e 817 932
e 817 884
e 823 858
e 824 958
e 826 910
e 827 939
e 827 976
e 830 952
e 830 885
e 832 975
e 832 891
e 832 839
e 833 960
e 836 858
e 836 885
e 839 917
e 844 891
e 844 858
e 845 898
e 850 934
e 851 945
e 859 991
e 861 948
e 863 950
e 863 914
e 870 962
e 872 915
e 876 932
e 876 900
e 878 977
e 878 978
e 883 888
e 884 910
e 885 964
e 885 888
e 891 970
e 893 927
e 895 935
e 898 954
e 899 961
e 899 969
e 900 978
e 902 980
e 908 973
e 909 958
e 909 937
e 910 983
e 919 980
e 927 935
e 930 943
e 930 958
e 931 952
e 932 980
e 932 955
e 945 961
e 948 949
e 955 958
e 955 981
e 957 965
e 958 968
e 967 977
